convert from MoS2WS2C7.car  14:23:52 03/
   1.00000000000000     
     3.1865000000000001    0.0000000000000000    0.0000000000000000
    -1.5932500000000001    2.7595899490000000    0.0000000000000000
     0.0000000000000000    0.0000000000000000   20.0000000000000000
   S    Mo   W 
     4     1     1
Selective dynamics
Direct
  0.6590252711670672  0.3458794186649001  0.6928363361171463   T   T   T
  0.6590500452167021  0.3458641142946846  0.5365118092509960   T   T   T
  0.9978807259779785  0.0010917266850186  0.3843759921671008   T   T   T
  0.9978331998048873  0.0009950667223180  0.2284473732455510   T   T   T
  0.6643677777759578  0.3342941563273740  0.3064443331738360   T   T   T
  0.9924381534397284  0.0124850600533861  0.6146028227453826   T   T   T
 
  0.00000000E+00  0.00000000E+00  0.00000000E+00
  0.00000000E+00  0.00000000E+00  0.00000000E+00
  0.00000000E+00  0.00000000E+00  0.00000000E+00
  0.00000000E+00  0.00000000E+00  0.00000000E+00
  0.00000000E+00  0.00000000E+00  0.00000000E+00
  0.00000000E+00  0.00000000E+00  0.00000000E+00
