General
  SYSTEM  = Your Job Name
  PREC    = Med
  ISPIN   = 1
  ISTART  = 0
  ICHARG  = 1

Electronic relaxation
  NPAR    = 4
  ISMEAR  = 0
  SIGMA   = 0.1
  ALGO    = Fast
  NELMIN  = 4
  NELM    = 120
  EDIFF   = 1E-6
  
Molecular Dynamics
  ISYM    = 0     # turn off symmetry in MD
  IBRION  = 0     # MD flag
  NSW     = 5000  # NSW*POTIM fs
  POTIM   = 1     # time step 1.0 fs
  SMASS   = -3    # Microcanonical 
  NBLOCK  = 1     # XDATCAR contains
                  # positions of each step
                  
Writing Flag
  NWRITE  = 1       # make OUTCAR small
  LWAVE   = .FALSE. # WAVECAR not needed
  LCHARG  = .FALSE. # CHG not needed

VDW-D2
  IVDW    = 10
