KPOINTS File, automatically generated 
0
G
11 11 1          
0 0 0
