convert from MoS2WS2C7.car  14:23:52 03/30/17
   1
      3.186500000      0.000000000      0.000000000
     -1.593250000      2.759589949      0.000000000
      0.000000000      0.000000000     20.000000000
    S    Mo   W
    4    1    1
Select Dynamics
Cart
    1.547282424    0.957218545   13.867026667 T T T   S
    1.547282424    0.957218545   10.696826667 T T T   S
    0.000000000    0.000000000    7.730360000 T T T   S
    0.000000000    0.000000000    4.560160000 T T T   S
    1.583001547    0.913946369    6.136666667 T T T   W
    3.130283971    0.043272176   12.273333333 T T T  Mo
