convert from MoS2WS2C7.car  14:23:52 03/
   1.00000000000000     
     3.1865000000000001    0.0000000000000000    0.0000000000000000
    -1.5932500000000001    2.7595899490000000    0.0000000000000000
     0.0000000000000000    0.0000000000000000   20.0000000000000000
   S    Mo   W 
     4     1     1
Selective dynamics
Direct
  0.6590252711670679  0.3458794186649011  0.6928363361171465   T   T   T
  0.6590500452167004  0.3458641142946813  0.5365118092509933   T   T   T
 -0.0021192740220241  0.0010917266850197  0.3843759921670983   T   T   T
 -0.0021668001951137  0.0009950667223207  0.2284473732455495   T   T   T
  0.6643677777759609  0.3342941563273754  0.3064443331738382   T   T   T
  0.9924381534397302  0.0124850600533833  0.6146028227453799   T   T   T
 
  0.00000000E+00  0.00000000E+00  0.00000000E+00
  0.00000000E+00  0.00000000E+00  0.00000000E+00
  0.00000000E+00  0.00000000E+00  0.00000000E+00
  0.00000000E+00  0.00000000E+00  0.00000000E+00
  0.00000000E+00  0.00000000E+00  0.00000000E+00
  0.00000000E+00  0.00000000E+00  0.00000000E+00
