General
  SYSTEM = VaspCalc
    PREC = Med
   ENCUT = 400 eV
   ISPIN = 1
  ISTART = 1
#   ICHARG = 1

Ionic Relaxation
#     ISYM = 0
  IBRION = 2
     NSW = 1000
    ISIF = 2
  EDIFFG = -1E-2

Electronic relaxation
    NPAR = 4
#    IALGO = 38
    ALGO = Fast
  NELMIN = 4
    NELM = 400
   EDIFF = 1E-6
  ISMEAR = 0
   SIGMA = 0.1

Writing Flag
  NWRITE = 1
   LWAVE = .FALSE.
  LCHARG = .FALSE.
#    LVTOT = .TRUE.

VDW-D2
    IVDW = 10
